&DOS
  prefix='si', outdir='./tmp', fildos='si', DeltaE=0.05
/
