&projwfc
  prefix='si', outdir='./tmp', filpdos='si.pdos', DeltaE=0.05
/
