&control
  calculation='bands', prefix='si', pseudo_dir='./pseudos', outdir='./tmp'
/
&system
  ibrav=2, celldm(1)=10.2631, nat=2, ntyp=1, ecutwfc=30, ecutrho=240,
  input_dft='pbe'
/
&electrons
  conv_thr=1.0d-8
/
ATOMIC_SPECIES
 Si 28.0855 Si.pbe-n-rrkjus_psl.1.0.0.UPF
ATOMIC_POSITIONS crystal
 Si 0.00 0.00 0.00
 Si 0.25 0.25 0.25
K_POINTS crystal_b
# FCC path Γ–X–W–K–Γ–L–U–W–L–K (Setyawan–Curtarolo, 2010)
 10
 0.0000 0.0000 0.0000  60
 0.5000 0.0000 0.5000  60
 0.5000 0.2500 0.7500  60
 0.3750 0.3750 0.7500  60
 0.0000 0.0000 0.0000  60
 0.5000 0.5000 0.5000  60
 0.6250 0.2500 0.6250  60
 0.5000 0.2500 0.7500  60
 0.5000 0.5000 0.5000  60
 0.3750 0.3750 0.7500  60
