&control
  calculation='nscf', prefix='si', pseudo_dir='./pseudos', outdir='./tmp'
/
&system
  ibrav=2, celldm(1)=10.2631, nat=2, ntyp=1, ecutwfc=30, ecutrho=240,
  occupations='tetrahedra',
  input_dft='pbe'
/
&electrons
  conv_thr=1.0d-10
/
ATOMIC_SPECIES
 Si 28.0855 Si.pbe-n-rrkjus_psl.1.0.0.UPF
ATOMIC_POSITIONS crystal
 Si 0.00 0.00 0.00
 Si 0.25 0.25 0.25
K_POINTS automatic
 12 12 12 0 0 0
